/*********************************************
 * OPL 12.6.0.0 Data
 * Author: Adrian Rodriguez Bazaga, Pau Rodriguez Esmerats
 * Creation Date: 20/12/2017 at 23:25:05
 *********************************************/

maxConsec=8;
maxPresence=16;
maxHours=5;
minHours=1;
hours=24;
demand= [56 72 73 53 53 26 11 10 11 2 3 2 3 3 2 3 3 2 2 1 1 1 1 0  ];
nNurses=128;
